
Log for 'C:\Users\ultra\AppData\Local\Temp\5c47cd0e3a0f412b99056e8db4c341e3-pulp.lp' Clone_2 (V22.1.1.0) Wed Jan  8 20:51:28 2025

Tried aggregator 1 time.
LP Presolve eliminated 3091 rows and 1172 columns.
All rows and columns eliminated.
Presolve time = 0.00 sec. (6.17 ticks)

Dual simplex solved model.

